c Random generated cnf formula, satisfiable: true
p cnf 10 50
2 -10 -5 0
-10 6 -3 0
-5 6 1 0
10 2 -1 0
5 -9 4 0
1 5 -9 0
-2 4 -6 0
7 10 -8 0
7 -2 8 0
3 2 5 0
1 5 7 0
-3 -8 10 0
5 1 -10 0
-6 10 -7 0
5 8 1 0
-9 -5 3 0
-6 -7 -8 0
-3 -4 -9 0
-7 -6 -10 0
-2 -1 3 0
-4 -7 1 0
1 -4 -2 0
4 7 5 0
-7 -6 -9 0
5 -3 1 0
-2 -4 9 0
1 9 -5 0
-9 -8 -4 0
10 -2 3 0
4 10 -2 0
-10 -7 -1 0
-7 8 10 0
-10 9 1 0
4 -10 5 0
8 -10 -2 0
-6 -7 2 0
1 -8 9 0
7 -9 6 0
3 2 4 0
10 -1 9 0
5 6 -7 0
2 5 6 0
7 -5 8 0
5 -1 6 0
-9 6 8 0
-6 8 10 0
9 8 -3 0
2 5 3 0
10 2 8 0
-6 -9 7 0
